Silver FCC
4.09
 1.0    0.0     0.0
 0.0    1.0     0.0
 0.0    0.0     1.0
Silver
4
Direct
 0.00 0.00 0.00
 0.5 0.5 0
 0 0.5 0.5
 0.5 0 0.5
